$molecule
0 1
C         0.4612418145   -1.2420508655    0.4160834249
C        -0.3176352256    0.0339416802    0.0478210584
C         0.5212480941    1.2960829808    0.3140850523
C         1.8786388613    1.2330233750   -0.4054423318
C         2.6561003230   -0.0411111453   -0.0398878193
C         1.8180135321   -1.3015031773   -0.3048229442
H        -0.0438417398    2.1810393219   -0.0003107249
H        -0.5799552283   -0.0042372449   -1.0144361342
H         0.6254389968   -1.2581548711    1.5046036210
H        -0.1470338295   -2.1205738758    0.1727325248
H         1.7108734973    1.2561227760   -1.4916154042
H         2.4691306411    2.1247003402   -0.1633160255
H         3.5956932235   -0.0856898414   -0.6036839828
H         2.9312876475   -0.0054621016    1.0245042060
H         1.6466794901   -1.4025956658   -1.3859770802
H         2.3659502825   -2.1983866104    0.0078815647
H         0.6887229560    1.3923277182    1.3981995017
N        -1.5973339814    0.0971451100    0.7554474478
H        -1.5856923318    0.1923106701    1.7627868945
C        -2.8130026809    0.0202304641    0.1491508509
H        -3.6473411342    0.0872214043    0.8731781509
O        -3.0035129044   -0.1046112663   -1.0534731298
$end

$rem
JOBTYPE  SP
METHOD  B3LYP
BASIS  6-31+G(D,P)
SYMMETRY  FALSE
SYM_IGNORE  FALSE
MEM_TOTAL  8000
MEM_STATIC  2000
MAX_SUB_FILE_NUM  16000
BASIS_LIN_DEP_THRESH  6
THRESH  14
SCF_CONVERGENCE  8
GEN_SCFMAN  TRUE
SCF_GUESS  SAD
FD_MAT_VEC_PROD  FALSE
XC_GRID  000099000590
NL_GRID  1
MAX_SCF_CYCLES  200
ESP_GRID -1
IANLTY   200
MAKE_CUBE_FILES TRUE
$end

$plots
plot the ESP
100  -6.0  6.0
100  -4.0  4.0
100  -4.0  4.0
0 0 0 0
0
$end
