$molecule
0 1
C      1.4237947151   -3.0608241526   -0.2538440369
C     -0.0027212903   -2.4796461989   -0.2795059386
C     -0.9525401856   -3.3676756901   -1.0991532318
C     -0.9415390712   -4.8198325502   -0.5924785153
C      0.4808305774   -5.4013926753   -0.5597540856
C      1.4296170591   -4.5107560466    0.2577480112
H     -1.9677091925   -2.9527234723   -1.0611279538
H     -0.3710480205   -2.4124550934    0.7501700820
H      1.8391537835   -3.0285456672   -1.2733804462
H      2.0609730780   -2.4249568761    0.3722142672
H     -1.3692833786   -4.8499379129    0.4207100227
H     -1.5935075460   -5.4372365188   -1.2237755725
H      0.4629390155   -6.4180942766   -0.1460956749
H      0.8612728327   -5.4887444164   -1.5891629525
H      1.1203820328   -4.5225023846    1.3136256342
H      2.4509224154   -4.9118020474    0.2288679143
H     -0.6393854958   -3.3513633735   -2.1560935585
N     -0.0187467309   -1.1070441237   -0.7901319655
H      0.0274523886   -0.9664323311   -1.7925891196
C      0.0000000000    0.0000000000    0.0000000000
H      0.0058779299    0.9377871154   -0.5885222185
O      0.0000000000   -0.0000000000    1.2239198468
$end

$rem
JOBTYPE  SP
METHOD  B3LYP
BASIS  6-31+G(D)
SYMMETRY  FALSE
SYM_IGNORE  TRUE
MEM_TOTAL  8000
MEM_STATIC  2000
MAX_SUB_FILE_NUM  16000
BASIS_LIN_DEP_THRESH  6
THRESH  14
SCF_CONVERGENCE  9
GEN_SCFMAN  TRUE
SCF_GUESS  SAD
FD_MAT_VEC_PROD  FALSE
XC_GRID  000099000590
NL_GRID  1
MAX_SCF_CYCLES  200
CHELPG          true
CM5             true
$end
